<number of tasks>
20

<cycle time>
1000

<order strength>
0,221


<task times>
1 209
2 274
3 422
4 280
5 93
6 138
7 97
8 228
9 87
10 251
11 193
12 152
13 131
14 151
15 166
16 198
17 25
18 84
19 518
20 223

<precedence relations>
1,3
1,5
2,4
2,6
2,7
3,8
4,9
5,10
6,11
7,12
8,13
9,15
10,14
12,16
12,17
13,18
14,19
15,20

<end>
